
Gurobi 11.0.3 (mac64[arm], Java) logging started 火  9/24 19:17:01 2024

Set parameter Username
Academic license - for non-commercial use only - expires 2025-09-24
Gurobi Optimizer version 11.0.3 build v11.0.3rc0 (mac64[arm] - Darwin 23.4.0 23E224)

CPU model: Apple M1 Pro
Thread count: 10 physical cores, 10 logical processors, using up to 10 threads

Optimize a model with 1 rows, 1 columns and 1 nonzeros
Model fingerprint: 0x22f9dda7
Variable types: 0 continuous, 1 integer (1 binary)
Coefficient statistics:
  Matrix range     [1e+00, 1e+00]
  Objective range  [1e+00, 1e+00]
  Bounds range     [1e+00, 1e+00]
  RHS range        [1e+00, 1e+00]
Found heuristic solution: objective 1.0000000

Explored 0 nodes (0 simplex iterations) in 0.00 seconds (0.00 work units)
Thread count was 1 (of 10 available processors)

Solution count 1: 1 

Optimal solution found (tolerance 1.00e-04)
Best objective 1.000000000000e+00, best bound 1.000000000000e+00, gap 0.0000%
